(set-logic ALL)
(declare-const n_VAR Int)
(assert (< 3 n_VAR))
(assert (< 6 n_VAR))
(assert (< 9 n_VAR))
(assert (< 12 n_VAR))
(assert (< 15 n_VAR))
(assert (< 18 n_VAR))
(assert (< 21 n_VAR))
(assert (< 24 n_VAR))
(assert (< 27 n_VAR))
(assert (< 30 n_VAR))
(assert (< 33 n_VAR))
(assert (< 36 n_VAR))
(assert (< 39 n_VAR))
(assert (< 42 n_VAR))
(assert (< 45 n_VAR))
(assert (< 48 n_VAR))
(assert (< 51 n_VAR))
(assert (< 54 n_VAR))
(assert (< 57 n_VAR))
(assert (< 60 n_VAR))
(assert (< 63 n_VAR))
(assert (< 66 n_VAR))
(assert (< 69 n_VAR))
(assert (< 72 n_VAR))
(assert (< 75 n_VAR))
(assert (< 78 n_VAR))
(assert (< 81 n_VAR))
(assert (< 84 n_VAR))
(assert (< 87 n_VAR))
(assert (< 90 n_VAR))
(assert (< 93 n_VAR))
(assert (< 96 n_VAR))
(assert (< 99 n_VAR))
(assert (< 102 n_VAR))
(assert (< 105 n_VAR))
(assert (< 108 n_VAR))
(assert (< 111 n_VAR))
(assert (< 114 n_VAR))
(assert (< 117 n_VAR))
(assert (< 120 n_VAR))
(assert (< 123 n_VAR))
(assert (< 126 n_VAR))
(assert (< 129 n_VAR))
(assert (< 132 n_VAR))
(assert (< 135 n_VAR))
(assert (< 138 n_VAR))
(assert (< 141 n_VAR))
(assert (< 144 n_VAR))
(assert (< 147 n_VAR))
(assert (< 150 n_VAR))
(assert (< 153 n_VAR))
(assert (< 156 n_VAR))
(assert (< 159 n_VAR))
(assert (< 162 n_VAR))
(assert (< 165 n_VAR))
(assert (< 168 n_VAR))
(assert (< 171 n_VAR))
(assert (< 174 n_VAR))
(assert (< 177 n_VAR))
(assert (< 180 n_VAR))
(assert (< 183 n_VAR))
(assert (< 186 n_VAR))
(assert (< 189 n_VAR))
(assert (< 192 n_VAR))
(assert (< 195 n_VAR))
(assert (< 198 n_VAR))
(assert (< 201 n_VAR))
(assert (< 204 n_VAR))
(assert (< 207 n_VAR))
(assert (< 210 n_VAR))
(assert (< 213 n_VAR))
(assert (< 216 n_VAR))
(assert (< 219 n_VAR))
(assert (< 222 n_VAR))
(assert (< 225 n_VAR))
(assert (< 228 n_VAR))
(assert (< 231 n_VAR))
(assert (< 234 n_VAR))
(assert (< 237 n_VAR))
(assert (< 240 n_VAR))
(assert (< 243 n_VAR))
(assert (< 246 n_VAR))
(assert (< 249 n_VAR))
(assert (< 252 n_VAR))
(assert (< 255 n_VAR))
(assert (< 258 n_VAR))
(assert (< 261 n_VAR))
(assert (< 264 n_VAR))
(assert (< 267 n_VAR))
(assert (< 270 n_VAR))
(assert (< 273 n_VAR))
(assert (< 276 n_VAR))
(assert (< 279 n_VAR))
(assert (< 282 n_VAR))
(assert (< 285 n_VAR))
(assert (< 288 n_VAR))
(assert (< 291 n_VAR))
(assert (< 294 n_VAR))
(assert (< 297 n_VAR))
(assert (< 300 n_VAR))
(assert (< 303 n_VAR))
(assert (< 306 n_VAR))
(assert (< 309 n_VAR))
(assert (< 312 n_VAR))
(assert (< 315 n_VAR))
(assert (< 318 n_VAR))
(assert (< 321 n_VAR))
(assert (< 324 n_VAR))
(assert (< 327 n_VAR))
(assert (< 330 n_VAR))
(assert (< 333 n_VAR))
(assert (< 336 n_VAR))
(assert (< 339 n_VAR))
(assert (< 342 n_VAR))
(assert (< 345 n_VAR))
(assert (< 348 n_VAR))
(assert (< 351 n_VAR))
(assert (< 354 n_VAR))
(assert (< 357 n_VAR))
(assert (< 360 n_VAR))
(assert (< 363 n_VAR))
(assert (< 366 n_VAR))
(assert (< 369 n_VAR))
(assert (< 372 n_VAR))
(assert (< 375 n_VAR))
(assert (< 378 n_VAR))
(assert (not (< 381 n_VAR)))
(assert (< 5 n_VAR))
(assert (< 10 n_VAR))
(assert (< 15 n_VAR))
(assert (< 20 n_VAR))
(assert (< 25 n_VAR))
(assert (< 30 n_VAR))
(assert (< 35 n_VAR))
(assert (< 40 n_VAR))
(assert (< 45 n_VAR))
(assert (< 50 n_VAR))
(assert (< 55 n_VAR))
(assert (< 60 n_VAR))
(assert (< 65 n_VAR))
(assert (< 70 n_VAR))
(assert (< 75 n_VAR))
(assert (< 80 n_VAR))
(assert (< 85 n_VAR))
(assert (< 90 n_VAR))
(assert (< 95 n_VAR))
(assert (< 100 n_VAR))
(assert (< 105 n_VAR))
(assert (< 110 n_VAR))
(assert (< 115 n_VAR))
(assert (< 120 n_VAR))
(assert (< 125 n_VAR))
(assert (< 130 n_VAR))
(assert (< 135 n_VAR))
(assert (< 140 n_VAR))
(assert (< 145 n_VAR))
(assert (< 150 n_VAR))
(assert (< 155 n_VAR))
(assert (< 160 n_VAR))
(assert (< 165 n_VAR))
(assert (< 170 n_VAR))
(assert (< 175 n_VAR))
(assert (< 180 n_VAR))
(assert (< 185 n_VAR))
(assert (< 190 n_VAR))
(assert (< 195 n_VAR))
(assert (< 200 n_VAR))
(assert (< 205 n_VAR))
(assert (< 210 n_VAR))
(assert (< 215 n_VAR))
(assert (< 220 n_VAR))
(assert (< 225 n_VAR))
(assert (< 230 n_VAR))
(assert (< 235 n_VAR))
(assert (< 240 n_VAR))
(assert (< 245 n_VAR))
(assert (< 250 n_VAR))
(assert (< 255 n_VAR))
(assert (< 260 n_VAR))
(assert (< 265 n_VAR))
(assert (< 270 n_VAR))
(assert (< 275 n_VAR))
(assert (< 280 n_VAR))
(assert (< 285 n_VAR))
(assert (< 290 n_VAR))
(assert (< 295 n_VAR))
(assert (< 300 n_VAR))
(assert (< 305 n_VAR))
(assert (not (< 310 n_VAR)))
(check-sat)
(get-value (n_VAR))
